research/research_4vars_8clauses_seed888.txt
4 5 2
6 8 1
2 6 3
7 8 2
3 4 2
4 8 2
2 8 1
5 7 1
5 8 1
1 7 1
3 6 2
1 8 1